! TPSS def2-SVP OPT PAL4

* XYZ 0 1 
N 0 0 0
H 0 0 1
H 0 1 0 
H 1 0 0
*
