! TPSS def2-SVP FREQ

* XYZFILE 0 1 opt.xyz
